WARNING: for repeatability, setting FPU to use double precision
============================[ Problem Statistics ]=============================
|                                                                             |
|  Number of variables:            50                                         |
|  Number of clauses:             218                                         |
|  Parse time:                   0.00 s                                       |
|                                                                             |
============================[ Search Statistics ]==============================
| Conflicts |          ORIGINAL         |          LEARNT          | Progress |
|           |    Vars  Clauses Literals |    Limit  Clauses Lit/Cl |          |
===============================================================================
===============================================================================
restarts              : 1
conflicts             : 76             (50165 /sec)
decisions             : 85             (0.00 % random) (56106 /sec)
propagations          : 983            (648845 /sec)
conflict literals     : 274            (14.38 % deleted)
Memory used           : 20.00 MB
CPU time              : 0.001515 s

UNSATISFIABLE
